data/evidence/ss_sat/proofs/scaled_cadical_drat/php_4_3.cadical.drat
-4 2 3 0
-7 2 3 0
-10 2 3 0
d 2 1 3 0
d -1 -4 0
d -1 -7 0
d -1 -10 0
-7 6 5 0
-10 6 5 0
6 5 2 3 0
d 4 6 5 0
d -4 -7 0
d -4 -10 0
d -4 2 3 0
-10 9 8 0
9 8 2 3 0
9 8 6 5 0
d 7 9 8 0
d -7 -10 0
d -7 2 3 0
d -7 6 5 0
12 11 2 3 0
12 11 6 5 0
12 11 9 8 0
d 10 12 11 0
d -10 2 3 0
d -10 6 5 0
d -10 9 8 0
-8 6 5 3 0
-11 6 5 3 0
-5 9 8 3 0
-11 9 8 3 0
-5 12 11 3 0
-8 12 11 3 0
d 6 5 2 3 0
d 9 8 2 3 0
d 12 11 2 3 0
d -2 -5 0
d -2 -8 0
d -2 -11 0
-8 6 3 0
d -8 6 5 3 0
-11 6 3 0
d -11 6 5 3 0
-11 9 8 6 0
9 8 6 3 0
9 8 6 12 11 3 0
-8 12 11 6 0
12 11 6 9 8 3 0
12 11 6 3 0
d 9 8 6 5 0
d 12 11 6 5 0
d -5 -8 0
d -5 -11 0
d -5 9 8 3 0
d -5 12 11 3 0
d 9 8 6 12 11 3 0
d 12 11 6 9 8 3 0
-3 12 11 8 0
-3 -11 8 6 0
-6 12 11 8 0
-6 -11 8 3 0
-12 -11 8 3 0
-12 -11 8 6 0
-12 8 6 3 0
d -3 -9 0
d -6 -9 0
d -9 -12 0
d 12 11 9 8 0
d -11 9 8 3 0
d -11 9 8 6 0
d 9 8 6 3 0
-3 11 8 0
d -3 12 11 8 0
-6 11 8 0
d -6 12 11 8 0
-6 -8 11 3 0
-3 -8 11 6 0
11 6 3 8 0
d -8 12 11 3 0
d -8 12 11 6 0
d 12 11 6 3 0
d -3 -12 0
d -6 -12 0
d -12 -11 8 3 0
d -12 -11 8 6 0
d -12 8 6 3 0
-6 -11 8 0
d -6 -11 8 3 0
-6 -8 11 0
d -6 -8 11 3 0
11 6 8 0
d 11 6 3 8 0
-11 8 6 0
d -3 -11 8 6 0
-8 11 6 0
d -3 -8 11 6 0
d -3 -6 0
d -3 11 8 0
d -8 6 3 0
d -11 6 3 0
11 8 0
d 11 6 8 0
d -6 11 8 0
-11 8 0
d -11 8 6 0
d -6 -11 8 0
-8 11 0
d -8 11 6 0
d -6 -8 11 0
11 0
0
