data/evidence/ss_sat/proofs/scaled_cadical_lrat/php_4_3.cadical.lrat
23 -4 2 3 0 1 5 0
24 -7 2 3 0 1 6 0
25 -10 2 3 0 1 7 0
25 d 1 5 6 7 0
26 -7 6 5 0 2 8 0
27 -10 6 5 0 2 9 0
28 6 5 2 3 0 23 2 0
28 d 2 8 9 23 0
29 -10 9 8 0 3 10 0
30 9 8 2 3 0 24 3 0
31 9 8 6 5 0 26 3 0
31 d 3 10 24 26 0
32 12 11 2 3 0 25 4 0
33 12 11 6 5 0 27 4 0
34 12 11 9 8 0 29 4 0
34 d 4 25 27 29 0
35 -8 6 5 3 0 28 12 0
36 -11 6 5 3 0 28 13 0
37 -5 9 8 3 0 30 11 0
38 -11 9 8 3 0 30 13 0
39 -5 12 11 3 0 32 11 0
40 -8 12 11 3 0 32 12 0
40 d 28 30 32 11 12 13 0
41 -8 6 3 0 35 14 0
41 d 35 0
42 -11 6 3 0 36 15 0
42 d 36 0
43 -11 9 8 6 0 31 15 0
44 9 8 6 3 0 37 31 0
45 9 8 6 12 11 3 0 39 31 0
46 -8 12 11 6 0 33 14 0
47 12 11 6 9 8 3 0 37 33 0
48 12 11 6 3 0 39 33 0
48 d 31 33 14 15 37 39 45 47 0
49 -3 12 11 8 0 34 18 0
50 -3 -11 8 6 0 43 18 0
51 -6 12 11 8 0 34 20 0
52 -6 -11 8 3 0 38 20 0
53 -12 -11 8 3 0 38 22 0
54 -12 -11 8 6 0 43 22 0
55 -12 8 6 3 0 44 22 0
55 d 18 20 22 34 38 43 44 0
56 -3 11 8 0 49 19 0
56 d 49 0
57 -6 11 8 0 51 21 0
57 d 51 0
58 -6 -8 11 3 0 40 21 0
59 -3 -8 11 6 0 46 19 0
60 11 6 3 8 0 55 48 0
60 d 40 46 48 19 21 53 54 55 0
61 -6 -11 8 0 52 17 0
61 d 52 0
62 -6 -8 11 0 58 17 0
62 d 58 0
63 11 6 8 0 60 56 0
63 d 60 0
64 -11 8 6 0 50 42 0
64 d 50 0
65 -8 11 6 0 59 41 0
65 d 59 17 56 41 42 0
66 11 8 0 57 63 0
66 d 63 57 0
67 -11 8 0 61 64 0
67 d 64 61 0
68 -8 11 0 62 65 0
68 d 65 62 0
69 11 0 68 66 0
70 0 69 16 67 0
